H8 C3 O3                                
    1.000000000000000     
    20.0000000000000000    0.0000000000000000    0.0000000000000000
     0.0000000000000000   20.0000000000000000    0.0000000000000000
     0.0000000000000000    0.0000000000000000   20.0000000000000000
   H    C    O 
     8     3     3
Direct
  0.4756506950614371  0.5134318026373068  0.5803782287300157
  0.5436317212278787  0.4484824814911024  0.4995044786784123
  0.4780732959552498  0.4537686180166726  0.4388217169100162
  0.4742107610774636  0.5823265671478263  0.4434919635312704
  0.5460750247089667  0.5737686453754713  0.4961114915074270
  0.4724006328340569  0.3833633271171484  0.5616448673626854
  0.3750509780340127  0.4709046402918311  0.5265767533271889
  0.4756036196219079  0.6338490236988488  0.5754520823091283
  0.4612454680460294  0.5150285036910179  0.5264425109473161
  0.4889614088655952  0.4520815326342955  0.4927228957692179
  0.4908059913530650  0.5782125344905295  0.4957933354502181
  0.4555947818921157  0.3931591018237952  0.5169974485256661
  0.3902889592210390  0.5169680615309306  0.5205277278741166
  0.4696823671040619  0.6386233187763847  0.5273670637439307
 
  0.00000000E+00  0.00000000E+00  0.00000000E+00
  0.00000000E+00  0.00000000E+00  0.00000000E+00
  0.00000000E+00  0.00000000E+00  0.00000000E+00
  0.00000000E+00  0.00000000E+00  0.00000000E+00
  0.00000000E+00  0.00000000E+00  0.00000000E+00
  0.00000000E+00  0.00000000E+00  0.00000000E+00
  0.00000000E+00  0.00000000E+00  0.00000000E+00
  0.00000000E+00  0.00000000E+00  0.00000000E+00
  0.00000000E+00  0.00000000E+00  0.00000000E+00
  0.00000000E+00  0.00000000E+00  0.00000000E+00
  0.00000000E+00  0.00000000E+00  0.00000000E+00
  0.00000000E+00  0.00000000E+00  0.00000000E+00
  0.00000000E+00  0.00000000E+00  0.00000000E+00
  0.00000000E+00  0.00000000E+00  0.00000000E+00
